
Gurobi 8.1.1 (linux64, Python) logging started Sun May  3 23:59:33 2020

Academic license - for non-commercial use only

Gurobi 8.1.1 (linux64, Python) logging started Mon May  4 00:01:33 2020

Academic license - for non-commercial use only

Gurobi 8.1.1 (linux64, Python) logging started Wed May  6 15:27:47 2020

Academic license - for non-commercial use only

Gurobi 8.1.1 (linux64, Python) logging started Wed May  6 19:53:25 2020

Academic license - for non-commercial use only

Gurobi 8.1.1 (linux64, Python) logging started Wed May  6 19:54:46 2020

Academic license - for non-commercial use only

Gurobi 8.1.1 (linux64, Python) logging started Wed May  6 19:58:17 2020

Academic license - for non-commercial use only

Gurobi 8.1.1 (linux64, Python) logging started Wed May  6 19:59:47 2020

Academic license - for non-commercial use only

Gurobi 8.1.1 (linux64, Python) logging started Wed May  6 20:01:24 2020

Academic license - for non-commercial use only

Gurobi 8.1.1 (linux64, Python) logging started Wed May  6 20:02:44 2020

Academic license - for non-commercial use only

Gurobi 8.1.1 (linux64, Python) logging started Wed May  6 20:04:09 2020

Academic license - for non-commercial use only

Gurobi 8.1.1 (linux64, Python) logging started Wed May  6 20:05:48 2020

Academic license - for non-commercial use only

Gurobi 8.1.1 (linux64, Python) logging started Wed May  6 20:49:07 2020

Academic license - for non-commercial use only

Gurobi 8.1.1 (linux64, Python) logging started Wed May  6 20:52:52 2020

Academic license - for non-commercial use only

Gurobi 8.1.1 (linux64, Python) logging started Wed May  6 20:55:06 2020

Academic license - for non-commercial use only

Gurobi 8.1.1 (linux64, Python) logging started Wed May  6 21:04:46 2020

Academic license - for non-commercial use only

Gurobi 8.1.1 (linux64, Python) logging started Wed May  6 21:26:42 2020

Academic license - for non-commercial use only

Gurobi 8.1.1 (linux64, Python) logging started Wed May  6 21:32:17 2020

Academic license - for non-commercial use only

Gurobi 8.1.1 (linux64, Python) logging started Wed May  6 21:33:24 2020

Academic license - for non-commercial use only

Gurobi 8.1.1 (linux64, Python) logging started Wed May  6 21:35:20 2020

Academic license - for non-commercial use only
